<number of tasks>
50

<cycle time>
1000

<order strength>
0.6


<task times>
1 23
2 88
3 72
4 101
5 127
6 252
7 223
8 67
9 169
10 185
11 559
12 289
13 481
14 322
15 142
16 295
17 86
18 256
19 146
20 131
21 23
22 502
23 128
24 255
25 136
26 61
27 206
28 183
29 62
30 35
31 84
32 167
33 195
34 59
35 640
36 195
37 510
38 28
39 480
40 104
41 27
42 68
43 134
44 91
45 261
46 48
47 370
48 536
49 87
50 64

<precedence relations>
1,8
2,8
3,8
4,8
5,27
6,9
7,42
8,10
8,11
8,12
8,13
8,14
8,16
9,15
9,16
10,17
10,26
11,19
12,17
12,18
13,36
13,39
14,30
14,39
15,18
15,25
16,19
17,27
18,20
18,22
19,20
19,21
19,36
20,24
20,29
21,25
21,27
21,29
22,23
22,26
23,27
24,27
25,41
26,28
26,29
26,30
27,31
27,32
27,33
27,34
27,35
27,37
28,41
29,37
29,41
30,36
31,41
32,38
33,39
33,45
34,39
34,40
37,39
37,40
38,41
39,43
40,42
40,44
40,45
41,46
41,47
41,48
41,49
41,50

<end>
